NAME : portcgen-25-60
COMMENT : portcgen N=25, seed=60
TYPE : TSP
DIMENSION : 25
EDGE_WEIGHT_TYPE : EUC_2D
NODE_COORD_SECTION
1 98 60
2 68 89
3 60 87
4 96 74
5 89 54
6 107 49
7 76 57
8 96 45
9 80 96
10 105 86
11 87 62
12 69 91
13 80 97
14 91 51
15 62 89
16 82 35
17 93 41
18 80 71
19 93 66
20 78 88
21 101 59
22 114 53
23 83 56
24 87 71
25 67 67
